
Gurobi 7.5.1 (win64, Python) logging started 10/18/17 18:09:04

Academic license - for non-commercial use only
Changed value of parameter TimeLimit to 300.0
   Prev: 1e+100  Min: 0.0  Max: 1e+100  Default: 1e+100
Optimize a model with 17675 rows, 229215 columns and 687087 nonzeros
Variable types: 229029 continuous, 186 integer (0 binary)
Coefficient statistics:
  Matrix range     [8e-01, 2e+03]
  Objective range  [2e+01, 2e+05]
  Bounds range     [1e+00, 1e+00]
  RHS range        [1e+00, 2e+02]
Found heuristic solution: objective 2.22463e+07
Presolve removed 1662 rows and 17260 columns
Presolve time: 1.03s
Presolved: 16013 rows, 211955 columns, 635284 nonzeros
Found heuristic solution: objective 2.217639e+07
Variable types: 211772 continuous, 183 integer (183 binary)

Root relaxation: objective 1.008605e+07, 7522 iterations, 0.37 seconds

    Nodes    |    Current Node    |     Objective Bounds      |     Work
 Expl Unexpl |  Obj  Depth IntInf | Incumbent    BestBd   Gap | It/Node Time

     0     0 1.0086e+07    0  155 2.2176e+07 1.0086e+07  54.5%     -    2s
H    0     0                    1.169996e+07 1.0086e+07  13.8%     -    2s
H    0     0                    1.111323e+07 1.0086e+07  9.24%     -    2s
     0     0 1.0132e+07    0  150 1.1113e+07 1.0132e+07  8.83%     -    4s
     0     0 1.0158e+07    0  149 1.1113e+07 1.0158e+07  8.60%     -    5s
     0     0 1.0187e+07    0  155 1.1113e+07 1.0187e+07  8.33%     -    6s
     0     0 1.0209e+07    0  149 1.1113e+07 1.0209e+07  8.14%     -    8s
     0     0 1.0235e+07    0  146 1.1113e+07 1.0235e+07  7.91%     -    9s
     0     0 1.0253e+07    0  142 1.1113e+07 1.0253e+07  7.74%     -   12s
     0     0 1.0262e+07    0  137 1.1113e+07 1.0262e+07  7.66%     -   15s
     0     0 1.0262e+07    0  133 1.1113e+07 1.0262e+07  7.66%     -   15s
     0     0 1.0262e+07    0  133 1.1113e+07 1.0262e+07  7.66%     -   15s
     0     0 1.0262e+07    0  133 1.1113e+07 1.0262e+07  7.66%     -   15s
     0     0 1.0262e+07    0  133 1.1113e+07 1.0262e+07  7.66%     -   16s
     0     0 1.0312e+07    0  134 1.1113e+07 1.0312e+07  7.21%     -   20s
     0     0 1.0335e+07    0  124 1.1113e+07 1.0335e+07  7.00%     -   25s
     0     0 1.0366e+07    0  112 1.1113e+07 1.0366e+07  6.72%     -   30s
     0     0 1.0371e+07    0  108 1.1113e+07 1.0371e+07  6.68%     -   31s
     0     0 1.0371e+07    0  102 1.1113e+07 1.0371e+07  6.68%     -   32s
     0     0 1.0386e+07    0   90 1.1113e+07 1.0386e+07  6.55%     -   39s
H    0     0                    1.099311e+07 1.0386e+07  5.53%     -   41s
H    0     0                    1.081917e+07 1.0386e+07  4.01%     -   41s
     0     0 1.0391e+07    0   84 1.0819e+07 1.0391e+07  3.95%     -   45s
     0     0 1.0392e+07    0   81 1.0819e+07 1.0392e+07  3.95%     -   46s
     0     0 1.0392e+07    0   75 1.0819e+07 1.0392e+07  3.95%     -   46s
     0     0 1.0402e+07    0   60 1.0819e+07 1.0402e+07  3.86%     -   52s
H    0     0                    1.077005e+07 1.0402e+07  3.42%     -   53s
H    0     0                    1.059536e+07 1.0402e+07  1.83%     -   53s
     0     0 1.0402e+07    0   52 1.0595e+07 1.0402e+07  1.83%     -   54s
     0     0 1.0406e+07    0   54 1.0595e+07 1.0406e+07  1.78%     -   59s
     0     0 1.0406e+07    0   54 1.0595e+07 1.0406e+07  1.78%     -   72s
H    0     0                    1.040729e+07 1.0406e+07  0.01%     -   72s

Cutting planes:
  Cover: 4
  Implied bound: 21783
  MIR: 6

Explored 1 nodes (43544 simplex iterations) in 72.63 seconds
Thread count was 4 (of 4 available processors)

Solution count 8: 1.04073e+07 1.05954e+07 1.077e+07 ... 2.21764e+07

Optimal solution found (tolerance 1.00e-04)
Best objective 1.040728759803e+07, best bound 1.040645838185e+07, gap 0.0080%

Gurobi 7.5.1 (win64, Python) logging started 10/30/17 16:39:53

Academic license - for non-commercial use only
Changed value of parameter TimeLimit to 300.0
   Prev: 1e+100  Min: 0.0  Max: 1e+100  Default: 1e+100
Optimize a model with 17675 rows, 229215 columns and 687087 nonzeros
Variable types: 229029 continuous, 186 integer (0 binary)
Coefficient statistics:
  Matrix range     [8e-01, 2e+03]
  Objective range  [2e+01, 2e+05]
  Bounds range     [1e+00, 1e+00]
  RHS range        [1e+00, 2e+02]
Found heuristic solution: objective 2.17452e+07
Presolve removed 1662 rows and 17260 columns
Presolve time: 1.11s
Presolved: 16013 rows, 211955 columns, 635284 nonzeros
Found heuristic solution: objective 2.168379e+07
Variable types: 211772 continuous, 183 integer (183 binary)

Root relaxation: objective 1.008605e+07, 8751 iterations, 0.52 seconds

    Nodes    |    Current Node    |     Objective Bounds      |     Work
 Expl Unexpl |  Obj  Depth IntInf | Incumbent    BestBd   Gap | It/Node Time

     0     0 1.0086e+07    0  155 2.1684e+07 1.0086e+07  53.5%     -    3s
H    0     0                    1.169996e+07 1.0086e+07  13.8%     -    3s
H    0     0                    1.111554e+07 1.0086e+07  9.26%     -    3s
     0     0 1.0132e+07    0  150 1.1116e+07 1.0132e+07  8.85%     -    5s
     0     0 1.0158e+07    0  149 1.1116e+07 1.0158e+07  8.62%     -    6s
     0     0 1.0187e+07    0  155 1.1116e+07 1.0187e+07  8.35%     -    7s
     0     0 1.0206e+07    0  155 1.1116e+07 1.0206e+07  8.18%     -    8s
     0     0 1.0234e+07    0  146 1.1116e+07 1.0234e+07  7.93%     -    9s
     0     0 1.0251e+07    0  142 1.1116e+07 1.0251e+07  7.78%     -   12s
     0     0 1.0262e+07    0  138 1.1116e+07 1.0262e+07  7.68%     -   15s
     0     0 1.0262e+07    0  133 1.1116e+07 1.0262e+07  7.68%     -   15s
     0     0 1.0262e+07    0  133 1.1116e+07 1.0262e+07  7.68%     -   16s
     0     0 1.0262e+07    0  133 1.1116e+07 1.0262e+07  7.68%     -   16s
     0     0 1.0262e+07    0  133 1.1116e+07 1.0262e+07  7.68%     -   16s
     0     0 1.0312e+07    0  135 1.1116e+07 1.0312e+07  7.23%     -   21s
     0     0 1.0335e+07    0  125 1.1116e+07 1.0335e+07  7.02%     -   26s
     0     0 1.0367e+07    0  110 1.1116e+07 1.0367e+07  6.73%     -   31s
     0     0 1.0371e+07    0  109 1.1116e+07 1.0371e+07  6.70%     -   32s
     0     0 1.0371e+07    0  103 1.1116e+07 1.0371e+07  6.70%     -   32s
     0     0 1.0386e+07    0   90 1.1116e+07 1.0386e+07  6.57%     -   39s
H    0     0                    1.099311e+07 1.0386e+07  5.53%     -   41s
H    0     0                    1.081917e+07 1.0386e+07  4.01%     -   41s
     0     0 1.0391e+07    0   81 1.0819e+07 1.0391e+07  3.95%     -   44s
     0     0 1.0392e+07    0   78 1.0819e+07 1.0392e+07  3.95%     -   45s
     0     0 1.0392e+07    0   72 1.0819e+07 1.0392e+07  3.95%     -   45s
     0     0 1.0402e+07    0   56 1.0819e+07 1.0402e+07  3.86%     -   51s
H    0     0                    1.077635e+07 1.0402e+07  3.48%     -   52s
H    0     0                    1.060167e+07 1.0402e+07  1.89%     -   53s
     0     0 1.0402e+07    0   48 1.0602e+07 1.0402e+07  1.88%     -   53s
     0     0 1.0406e+07    0   47 1.0602e+07 1.0406e+07  1.84%     -   58s
H    0     0                    1.041534e+07 1.0406e+07  0.09%     -   59s
     0     0 1.0406e+07    0   25 1.0415e+07 1.0406e+07  0.09%     -   59s
     0     0 1.0406e+07    0    6 1.0415e+07 1.0406e+07  0.08%     -   60s
     0     0 1.0407e+07    0    8 1.0415e+07 1.0407e+07  0.08%     -   62s
     0     0 1.0407e+07    0   20 1.0415e+07 1.0407e+07  0.08%     -   63s
     0     0 1.0407e+07    0   20 1.0415e+07 1.0407e+07  0.08%     -   69s
H    0     0                    1.040729e+07 1.0407e+07  0.01%     -   69s

Cutting planes:
  Cover: 4
  Implied bound: 21622
  MIR: 8

Explored 1 nodes (43909 simplex iterations) in 69.45 seconds
Thread count was 4 (of 4 available processors)

Solution count 9: 1.04073e+07 1.04153e+07 1.06017e+07 ... 2.16838e+07

Optimal solution found (tolerance 1.00e-04)
Best objective 1.040728759803e+07, best bound 1.040657077805e+07, gap 0.0069%
Changed value of parameter TimeLimit to 300.0
   Prev: 1e+100  Min: 0.0  Max: 1e+100  Default: 1e+100
Optimize a model with 18252 rows, 356801 columns and 1069263 nonzeros
Variable types: 356421 continuous, 380 integer (0 binary)
Coefficient statistics:
  Matrix range     [8e-01, 2e+03]
  Objective range  [4e+00, 6e+04]
  Bounds range     [1e+00, 1e+00]
  RHS range        [1e+00, 2e+02]
Found heuristic solution: objective 1.65731e+07
Presolve removed 2026 rows and 34423 columns
Presolve time: 2.62s
Presolved: 16226 rows, 322378 columns, 964276 nonzeros
Found heuristic solution: objective 1.576654e+07
Variable types: 322007 continuous, 371 integer (371 binary)

Root simplex log...

Iteration    Objective       Primal Inf.    Dual Inf.      Time
   17926    7.8374587e+06   2.156589e+04   0.000000e+00      6s
   38776    7.8751245e+06   0.000000e+00   0.000000e+00      7s

Root relaxation: objective 7.875124e+06, 38776 iterations, 4.54 seconds

    Nodes    |    Current Node    |     Objective Bounds      |     Work
 Expl Unexpl |  Obj  Depth IntInf | Incumbent    BestBd   Gap | It/Node Time

     0     0 7875124.47    0  181 1.5767e+07 7875124.47  50.1%     -    8s
H    0     0                    9226697.4361 7875124.47  14.6%     -    9s
H    0     0                    9045813.1594 7875124.47  12.9%     -    9s
H    0     0                    9042024.5577 7875124.47  12.9%     -    9s
     0     0 7922157.14    0  190 9042024.56 7922157.14  12.4%     -   12s
     0     0 7955906.88    0  207 9042024.56 7955906.88  12.0%     -   14s
     0     0 7989220.44    0  208 9042024.56 7989220.44  11.6%     -   16s
     0     0 8020203.04    0  210 9042024.56 8020203.04  11.3%     -   17s
     0     0 8030116.90    0  210 9042024.56 8030116.90  11.2%     -   19s
     0     0 8048113.69    0  218 9042024.56 8048113.69  11.0%     -   21s
     0     0 8057972.16    0  213 9042024.56 8057972.16  10.9%     -   24s
     0     0 8059031.82    0  201 9042024.56 8059031.82  10.9%     -   25s
     0     0 8059055.87    0  202 9042024.56 8059055.87  10.9%     -   25s
     0     0 8059056.15    0  202 9042024.56 8059056.15  10.9%     -   26s
     0     0 8090006.84    0  223 9042024.56 8090006.84  10.5%     -   31s
H    0     0                    8574072.4270 8090006.84  5.65%     -   32s
     0     0 8116312.58    0  217 8574072.43 8116312.58  5.34%     -   37s
     0     0 8132257.75    0  217 8574072.43 8132257.75  5.15%     -   44s
     0     0 8137950.75    0  220 8574072.43 8137950.75  5.09%     -   52s
     0     0 8141602.19    0  202 8574072.43 8141602.19  5.04%     -   58s
     0     0 8141841.75    0  197 8574072.43 8141841.75  5.04%     -   59s
     0     0 8141846.28    0  192 8574072.43 8141846.28  5.04%     -   59s
     0     0 8173108.84    0  197 8574072.43 8173108.84  4.68%     -   68s
H    0     0                    8362349.6842 8173108.84  2.26%     -   70s
     0     0 8185353.09    0  195 8362349.68 8185353.09  2.12%     -   81s
     0     0 8188169.79    0  184 8362349.68 8188169.79  2.08%     -   87s
     0     0 8188934.34    0  180 8362349.68 8188934.34  2.07%     -   89s
     0     0 8188980.69    0  177 8362349.68 8188980.69  2.07%     -   89s
     0     0 8215474.74    0  183 8362349.68 8215474.74  1.76%     -  107s
H    0     0                    8315925.6369 8215474.74  1.21%     -  109s
     0     0 8217263.68    0  164 8315925.64 8217263.68  1.19%     -  114s
     0     0 8217791.81    0  163 8315925.64 8217791.81  1.18%     -  117s
     0     0 8225469.85    0  143 8315925.64 8225469.85  1.09%     -  134s
H    0     0                    8302190.9953 8225469.85  0.92%     -  136s
     0     0 8226176.79    0  126 8302191.00 8226176.79  0.92%     -  139s
     0     0 8226353.58    0  122 8302191.00 8226353.58  0.91%     -  142s
     0     0 8230024.54    0  125 8302191.00 8230024.54  0.87%     -  152s
H    0     0                    8261112.6761 8230024.54  0.38%     -  154s
     0     0 8230210.02    0   97 8261112.68 8230210.02  0.37%     -  158s
     0     0 8232445.54    0  106 8261112.68 8232445.54  0.35%     -  168s
H    0     0                    8261027.6182 8232445.54  0.35%     -  170s
     0     0 8232631.49    0  109 8261027.62 8232631.49  0.34%     -  173s
     0     0 8238106.62    0   95 8261027.62 8238106.62  0.28%     -  187s
H    0     0                    8258426.8609 8238106.62  0.25%     -  189s
     0     0 8238631.29    0   99 8258426.86 8238631.29  0.24%     -  193s
     0     0 8244222.26    0  101 8258426.86 8244222.26  0.17%     -  202s
     0     0 8244222.26    0   99 8258426.86 8244222.26  0.17%     -  229s
H    0     0                    8251962.5031 8244222.26  0.09%     -  244s
H    0     0                    8250645.0648 8244222.26  0.08%     -  252s
     0     2 8244249.46    0   96 8250645.06 8244249.46  0.08%     -  258s
     1     3 8244341.34    1   96 8250645.06 8244341.34  0.08%   738  261s
     7     6 8244968.66    4   88 8250645.06 8244968.66  0.07%   396  266s
    11     6 8245551.11    6   96 8250645.06 8245331.25  0.06%   334  276s
    16     9 8245554.89    8   86 8250645.06 8245331.25  0.06%   305  280s
    22    11 8245663.09   10   81 8250645.06 8245331.25  0.06%   283  287s
    31    14 8246756.22   16   60 8250645.06 8245331.25  0.06%   257  295s
    41    22 8246865.58   20   47 8250645.06 8245331.25  0.06%   272  300s

Cutting planes:
  Cover: 7
  Implied bound: 28380
  MIR: 9
  Flow cover: 6

Explored 45 nodes (120971 simplex iterations) in 300.11 seconds
Thread count was 4 (of 4 available processors)

Solution count 10: 8.25065e+06 8.25196e+06 8.25843e+06 ... 9.04202e+06

Time limit reached
Best objective 8.250645064813e+06, best bound 8.245331250568e+06, gap 0.0644%
